p cnf 25 60
a 2 19 0
e 1 3 4 5 6 7 8 9 10 11 12 13 14 15 16 17 18 20 21 22 23 24 25 0
3 -1 0
3 2 0
1 -2 -3 0
5 3 0
5 4 0
-3 -4 -5 0
-3 5 -6 0
3 -5 -6 0
-3 -5 6 0
3 5 6 0
-7 3 -8 0
7 -3 -8 0
-7 -3 8 0
7 3 8 0
9 -6 0
9 8 0
6 -8 -9 0
-11 -1 0
-11 -10 0
1 10 11 0
12 -9 0
12 -11 0
9 11 -12 0
-14 13 0
-14 -13 0
-15 2 0
-15 14 0
-2 -14 15 0
-16 1 0
-16 15 0
-1 -15 16 0
-16 -7 -17 0
16 7 -17 0
-16 7 17 0
16 -7 17 0
-19 -10 0
-19 -1 0
10 1 19 0
20 18 0
20 19 0
-18 -19 -20 0
-21 17 0
-21 20 0
-17 -20 21 0
-12 -21 -22 0
12 21 -22 0
-12 21 22 0
12 -21 22 0
24 -13 0
24 23 0
13 -23 -24 0
-25 22 0
-25 24 0
-22 -24 25 0
18 19 20 25 -14 0
-19 12 -13 24 -9 0
6 -1 24 8 -12 -3 -4 0
-20 17 -12 -16 -4 11 0
25 -20 -14 -3 7 -6 -17 0
25 0
